solution status: optimal solution found
objective value:                       135931.1237653
d11(0,0)                                            1 	(obj:0)
d11(1,1)                                            1 	(obj:0)
d11(1,2)                                            1 	(obj:0)
d11(2,3)                                            1 	(obj:0)
d11(2,5)                                            1 	(obj:0)
d11(2,6)                                            1 	(obj:0)
d11(3,7)                                            1 	(obj:0)
d11(3,8)                                            1 	(obj:0)
d11(3,9)                                            1 	(obj:0)
d11(3,10)                                           1 	(obj:0)
d11(3,11)                                           1 	(obj:0)
d11(3,13)                                           1 	(obj:0)
d11(3,14)                                           1 	(obj:0)
d21(3,7)                                            1 	(obj:0)
WB(2)                                3315.65537776224 	(obj:0)
STE(1,1)                             4493.24989888882 	(obj:0)
STE(0,0)                                         7875 	(obj:0)
STE(1,2)                             6151.49979777763 	(obj:0)
STE(2,3)                                         2205 	(obj:0)
STE(2,4)                             3863.24989888882 	(obj:0)
STE(2,5)                             3863.24989888876 	(obj:0)
STE(2,6)                             5521.49979777763 	(obj:0)
STE(3,7)                            -83.2498988888175 	(obj:0)
STE(3,8)                                         1575 	(obj:0)
STE(3,9)                             1574.99999999999 	(obj:0)
STE(3,10)                            3233.24989888876 	(obj:0)
STE(3,11)                                        1575 	(obj:0)
STE(3,12)                            3233.24989888876 	(obj:0)
STE(3,13)                            3233.24989888882 	(obj:0)
STE(3,14)                            4891.49979777763 	(obj:0)
AVE(2)                               3315.65537776224 	(obj:0)
WB(3)                                3315.65799770399 	(obj:0)
y1(1,1)                              2476.57509100006 	(obj:0)
y1(1,2)                              984.150182000129 	(obj:0)
y1(2,3)                              1492.42490899994 	(obj:0)
y1(2,5)                              1492.42490899999 	(obj:0)
y1(3,7)                              1492.42490899994 	(obj:0)
y1(3,9)                              1492.42490899994 	(obj:0)
y1(3,11)                             1492.42490899988 	(obj:0)
y1(3,13)                             1492.42490899994 	(obj:0)
AVE(3)                               3315.65799770399 	(obj:0)
WB(1)                                3248.33172520918 	(obj:0)
BG(1)                                5200.52737857153 	(obj:10)
BG(2)                                4196.29249897959 	(obj:10)
BG(3)                                4196.29249897959 	(obj:10)
AVE(1)                               3248.33172520918 	(obj:0)
